0
Node Left Objective IInf Best_Integer Best_Bound ItCnt Gap
0 0 0.0000 6 0.0000 77
0 0 0.0000 5 Cuts:7 89
0 0 0.0000 5 Cuts:5 97
0 0 0.0000 4 Cuts:7 104
0 2 0.0000 4 0.0000 104 0 0
CPXPARAM_MIP_Cuts_Disjunctive-LiftProj:Disjunctive 2
CPXPARAM_MIP_Cuts_Disjunctive-LiftProj:LiftProj 2
1
Node Left Objective IInf Best_Integer Best_Bound ItCnt Gap
0 0 0.0000 4 0.0000 57
0 0 0.0000 3 Disjcuts:3 63
0 2 0.0000 4 0.0000 63 0 0
CPXPARAM_MIP_Cuts_Disjunctive-LiftProj:Disjunctive 0
CPXPARAM_MIP_Cuts_Disjunctive-LiftProj:LiftProj 2
2
Node Left Objective IInf Best_Integer Best_Bound ItCnt Gap
0 0 0.0000 6 0.0000 57
0 0 0.0000 6 Cuts:6 68
0 0 0.0000 5 Cuts:6 78
0 2 0.0000 5 0.0000 78 0 0
CPXPARAM_MIP_Cuts_Disjunctive-LiftProj:Disjunctive 1
CPXPARAM_MIP_Cuts_Disjunctive-LiftProj:LiftProj 2
3
Node Left Objective IInf Best_Integer Best_Bound ItCnt Gap
0 0 0 0.0000 0.0000 19 0.00% 0
CPXPARAM_MIP_Cuts_Disjunctive-LiftProj:Disjunctive 0
CPXPARAM_MIP_Cuts_Disjunctive-LiftProj:LiftProj 0
4
Node Left Objective IInf Best_Integer Best_Bound ItCnt Gap
0 0 0.0000 7 0.0000 62
0 0 0.0000 7 Cuts:8 73
0 0 0.0000 4 Cuts:7 81
0 0 0.0000 4 Cuts:5 91
0 2 0.0000 4 0.0000 91 0 0
CPXPARAM_MIP_Cuts_Disjunctive-LiftProj:Disjunctive 3
CPXPARAM_MIP_Cuts_Disjunctive-LiftProj:LiftProj 1
5
Node Left Objective IInf Best_Integer Best_Bound ItCnt Gap
0 0 0.0000 3 0.0000 48
0 0 0.0000 2 Disjcuts:2 88
0 0 0.0000 3 Disjcuts:1 91
0 2 0.0000 3 0.0000 91 0 0
CPXPARAM_MIP_Cuts_Disjunctive-LiftProj:Disjunctive 0
CPXPARAM_MIP_Cuts_Disjunctive-LiftProj:LiftProj 2
6
Node Left Objective IInf Best_Integer Best_Bound ItCnt Gap
0 0 0.0000 5 0.0000 26
0 0 0.0000 4 Disjcuts:4 44
0 0 0.0000 4 Cuts:3 52
0 0 0.0000 4 Cuts:4 63
0 2 0.0000 4 0.0000 63 0 0
CPXPARAM_MIP_Cuts_Disjunctive-LiftProj:Disjunctive 0
CPXPARAM_MIP_Cuts_Disjunctive-LiftProj:LiftProj 1
7
Node Left Objective IInf Best_Integer Best_Bound ItCnt Gap
0 0 0 0.0000 0.0000 28 0.00% 0
CPXPARAM_MIP_Cuts_Disjunctive-LiftProj:Disjunctive 0
CPXPARAM_MIP_Cuts_Disjunctive-LiftProj:LiftProj 0
8
Node Left Objective IInf Best_Integer Best_Bound ItCnt Gap
0 0 0.0000 8 0.0000 65
0 0 0.0000 6 Cuts:6 76
0 0 0.0000 4 Cuts:8 91
0 0 0.0000 3 Cuts:6 97
0 0 0.0000 3 Cuts:4 102
0 2 0.0000 3 0.0000 102 0 0
CPXPARAM_MIP_Cuts_Disjunctive-LiftProj:Disjunctive 3
CPXPARAM_MIP_Cuts_Disjunctive-LiftProj:LiftProj 1
9
Node Left Objective IInf Best_Integer Best_Bound ItCnt Gap
0 0 0.0000 4 0.0000 55
0 0 0.0000 4 Disjcuts:3 100
0 0 0.0000 3 Disjcuts:3 105
0 2 0.0000 3 0.0000 105 0 0
CPXPARAM_MIP_Cuts_Disjunctive-LiftProj:Disjunctive 0
CPXPARAM_MIP_Cuts_Disjunctive-LiftProj:LiftProj 2
10
Node Left Objective IInf Best_Integer Best_Bound ItCnt Gap
0 0 0.0000 5 0.0000 71
0 0 0.0000 4 Cuts:7 79
0 0 0.0000 4 Cuts:7 84
0 0 0.0000 4 Cuts:6 94
0 2 0.0000 4 0.0000 94 0 0
CPXPARAM_MIP_Cuts_Disjunctive-LiftProj:Disjunctive 4
CPXPARAM_MIP_Cuts_Disjunctive-LiftProj:LiftProj 0
11
Node Left Objective IInf Best_Integer Best_Bound ItCnt Gap
0 0 0.0000 2 0.0000 41
0 0 0.0000 2 Disjcuts:1 57
0 0 0 0.0000 Cuts:2 60 0.00%
0 0 cutoff 0.0000 0.0000 60 0.00% 0
CPXPARAM_MIP_Cuts_Disjunctive-LiftProj:Disjunctive 1
CPXPARAM_MIP_Cuts_Disjunctive-LiftProj:LiftProj 1
12
Node Left Objective IInf Best_Integer Best_Bound ItCnt Gap
0 0 0.0000 4 0.0000 55
0 0 0.0000 5 Disjcuts:3 59
0 0 0.0000 5 Disjcuts:3 63
0 2 0.0000 5 0.0000 63 0 0
CPXPARAM_MIP_Cuts_Disjunctive-LiftProj:Disjunctive 0
CPXPARAM_MIP_Cuts_Disjunctive-LiftProj:LiftProj 3
13
Node Left Objective IInf Best_Integer Best_Bound ItCnt Gap
0 0 0.0000 6 0.0000 57
0 0 0.0000 5 Disjcuts:4 99
0 0 0.0000 4 Disjcuts:2 102
0 0 0.0000 3 Disjcuts:1 105
0 2 0.0000 4 0.0000 105 0 0
CPXPARAM_MIP_Cuts_Disjunctive-LiftProj:Disjunctive 0
CPXPARAM_MIP_Cuts_Disjunctive-LiftProj:LiftProj 2
14
Node Left Objective IInf Best_Integer Best_Bound ItCnt Gap
0 0 0.0000 2 0.0000 30
0 2 0.0000 2 0.0000 70 0 0
CPXPARAM_MIP_Cuts_Disjunctive-LiftProj:Disjunctive 0
CPXPARAM_MIP_Cuts_Disjunctive-LiftProj:LiftProj 0
15
Node Left Objective IInf Best_Integer Best_Bound ItCnt Gap
0 0 0.0000 1 0.0000 35
0 2 0.0000 2 0.0000 75 0 0
CPXPARAM_MIP_Cuts_Disjunctive-LiftProj:Disjunctive 0
CPXPARAM_MIP_Cuts_Disjunctive-LiftProj:LiftProj 0
16
Node Left Objective IInf Best_Integer Best_Bound ItCnt Gap
0 0 0.0000 5 0.0000 63
0 0 0.0000 4 Disjcuts:3 67
0 0 0.0000 3 Cuts:4 71
0 0 0.0000 3 Disjcuts:2 77
0 2 0.0000 3 0.0000 77 0 0
CPXPARAM_MIP_Cuts_Disjunctive-LiftProj:Disjunctive 1
CPXPARAM_MIP_Cuts_Disjunctive-LiftProj:LiftProj 2
17
Node Left Objective IInf Best_Integer Best_Bound ItCnt Gap
0 0 0.0000 4 0.0000 48
0 0 0.0000 2 Disjcuts:3 52
0 0 0.0000 2 Disjcuts:1 54
0 2 0.0000 2 0.0000 54 0 0
CPXPARAM_MIP_Cuts_Disjunctive-LiftProj:Disjunctive 0
CPXPARAM_MIP_Cuts_Disjunctive-LiftProj:LiftProj 1
18
Node Left Objective IInf Best_Integer Best_Bound ItCnt Gap
0 0 0.0000 4 0.0000 28
0 0 0.0000 6 Disjcuts:2 95
0 0 0.0000 5 Cuts:5 105
0 2 0.0000 6 0.0000 105 0 0
CPXPARAM_MIP_Cuts_Disjunctive-LiftProj:Disjunctive 1
CPXPARAM_MIP_Cuts_Disjunctive-LiftProj:LiftProj 1
19
Node Left Objective IInf Best_Integer Best_Bound ItCnt Gap
0 0 0 0.0000 0.0000 40 0.00% 0
CPXPARAM_MIP_Cuts_Disjunctive-LiftProj:Disjunctive 0
CPXPARAM_MIP_Cuts_Disjunctive-LiftProj:LiftProj 0
20
Node Left Objective IInf Best_Integer Best_Bound ItCnt Gap
0 0 0.0000 6 0.0000 54
0 0 0.0000 2 Cuts:6 108
0 0 0 0.0000 Disjcuts:1 111 0.00%
0 0 cutoff 0.0000 0.0000 111 0.00% 0
CPXPARAM_MIP_Cuts_Disjunctive-LiftProj:Disjunctive 1
CPXPARAM_MIP_Cuts_Disjunctive-LiftProj:LiftProj 3
21
Node Left Objective IInf Best_Integer Best_Bound ItCnt Gap
0 0 0.0000 3 0.0000 52
0 0 0.0000 4 Disjcuts:2 92
0 0 0.0000 3 Disjcuts:2 95
0 2 0.0000 3 0.0000 95 0 0
CPXPARAM_MIP_Cuts_Disjunctive-LiftProj:Disjunctive 0
CPXPARAM_MIP_Cuts_Disjunctive-LiftProj:LiftProj 2
22
Node Left Objective IInf Best_Integer Best_Bound ItCnt Gap
0 0 0.0000 3 0.0000 18
0 0 0 0.0000 Disjcuts:1 45 0.00%
0 0 cutoff 0.0000 0.0000 45 0.00% 0
CPXPARAM_MIP_Cuts_Disjunctive-LiftProj:Disjunctive 0
CPXPARAM_MIP_Cuts_Disjunctive-LiftProj:LiftProj 0
23
Node Left Objective IInf Best_Integer Best_Bound ItCnt Gap
0 0 0.0000 4 0.0000 23
0 0 0.0000 5 Disjcuts:3 46
0 0 0.0000 4 Cuts:4 53
0 2 0.0000 5 0.0000 53 0 0
CPXPARAM_MIP_Cuts_Disjunctive-LiftProj:Disjunctive 1
CPXPARAM_MIP_Cuts_Disjunctive-LiftProj:LiftProj 2
24
Node Left Objective IInf Best_Integer Best_Bound ItCnt Gap
0 0 0.0000 3 0.0000 53
0 0 0.0000 2 Cuts:4 64
0 0 0 0.0000 Disjcuts:1 65 0.00%
0 0 cutoff 0.0000 0.0000 65 0.00% 0
CPXPARAM_MIP_Cuts_Disjunctive-LiftProj:Disjunctive 1
CPXPARAM_MIP_Cuts_Disjunctive-LiftProj:LiftProj 1
25
Node Left Objective IInf Best_Integer Best_Bound ItCnt Gap
0 0 0.0000 6 0.0000 52
0 0 0.0000 7 Disjcuts:5 63
0 0 0.0000 7 Disjcuts:5 73
0 2 0.0000 8 0.0000 73 0 0
CPXPARAM_MIP_Cuts_Disjunctive-LiftProj:Disjunctive 0
CPXPARAM_MIP_Cuts_Disjunctive-LiftProj:LiftProj 6
26
Node Left Objective IInf Best_Integer Best_Bound ItCnt Gap
0 0 0 0.0000 0.0000 14 0.00% 0
CPXPARAM_MIP_Cuts_Disjunctive-LiftProj:Disjunctive 0
CPXPARAM_MIP_Cuts_Disjunctive-LiftProj:LiftProj 0
27
Node Left Objective IInf Best_Integer Best_Bound ItCnt Gap
0 0 0 0.0000 0.0000 19 0.00% 0
CPXPARAM_MIP_Cuts_Disjunctive-LiftProj:Disjunctive 0
CPXPARAM_MIP_Cuts_Disjunctive-LiftProj:LiftProj 0
28
Node Left Objective IInf Best_Integer Best_Bound ItCnt Gap
0 0 0.0000 6 0.0000 62
0 0 0.0000 6 Cuts:6 72
0 0 0.0000 5 Cuts:7 77
0 2 0.0000 5 0.0000 77 0 0
CPXPARAM_MIP_Cuts_Disjunctive-LiftProj:Disjunctive 1
CPXPARAM_MIP_Cuts_Disjunctive-LiftProj:LiftProj 3
29
Node Left Objective IInf Best_Integer Best_Bound ItCnt Gap
0 0 0.0000 4 0.0000 48
0 0 0.0000 3 Disjcuts:3 103
0 0 0.0000 3 Disjcuts:2 108
0 2 0.0000 3 0.0000 108 0 0
CPXPARAM_MIP_Cuts_Disjunctive-LiftProj:Disjunctive 0
CPXPARAM_MIP_Cuts_Disjunctive-LiftProj:LiftProj 2
30
Node Left Objective IInf Best_Integer Best_Bound ItCnt Gap
0 0 0 0.0000 0.0000 20 0.00% 0
CPXPARAM_MIP_Cuts_Disjunctive-LiftProj:Disjunctive 0
CPXPARAM_MIP_Cuts_Disjunctive-LiftProj:LiftProj 0
31
Node Left Objective IInf Best_Integer Best_Bound ItCnt Gap
0 0 0 0.0000 0.0000 27 0.00% 0
CPXPARAM_MIP_Cuts_Disjunctive-LiftProj:Disjunctive 0
CPXPARAM_MIP_Cuts_Disjunctive-LiftProj:LiftProj 0
32
Node Left Objective IInf Best_Integer Best_Bound ItCnt Gap
0 0 0.0000 9 0.0000 59
0 0 0.0000 8 Cuts:10 72
0 0 0.0000 7 Cuts:7 86
0 0 0.0000 7 Cuts:7 99
0 2 0.0000 7 0.0000 99 0 0
CPXPARAM_MIP_Cuts_Disjunctive-LiftProj:Disjunctive 0
CPXPARAM_MIP_Cuts_Disjunctive-LiftProj:LiftProj 4
33
Node Left Objective IInf Best_Integer Best_Bound ItCnt Gap
0 0 0.0000 7 0.0000 61
0 0 0.0000 5 Disjcuts:6 76
0 0 0.0000 7 Cuts:6 86
0 0 0.0000 3 Disjcuts:7 95
0 0 0.0000 6 Disjcuts:3 101
0 2 0.0000 6 0.0000 101 0 0
CPXPARAM_MIP_Cuts_Disjunctive-LiftProj:Disjunctive 0
CPXPARAM_MIP_Cuts_Disjunctive-LiftProj:LiftProj 4
34
Node Left Objective IInf Best_Integer Best_Bound ItCnt Gap
0 0 0.0000 3 0.0000 40
0 0 0.0000 4 Disjcuts:1 73
0 0 0 0.0000 Disjcuts:1 75 0.00%
0 0 cutoff 0.0000 0.0000 75 0.00% 0
CPXPARAM_MIP_Cuts_Disjunctive-LiftProj:Disjunctive 0
CPXPARAM_MIP_Cuts_Disjunctive-LiftProj:LiftProj 1
35
Node Left Objective IInf Best_Integer Best_Bound ItCnt Gap
0 0 0 0.0000 0.0000 28 0.00% 0
CPXPARAM_MIP_Cuts_Disjunctive-LiftProj:Disjunctive 0
CPXPARAM_MIP_Cuts_Disjunctive-LiftProj:LiftProj 0
36
Node Left Objective IInf Best_Integer Best_Bound ItCnt Gap
0 0 0.0000 8 0.0000 61
0 0 0.0000 8 Cuts:10 73
0 0 0.0000 7 Cuts:9 88
0 2 0.0000 7 0.0000 88 0 0
CPXPARAM_MIP_Cuts_Disjunctive-LiftProj:Disjunctive 2
CPXPARAM_MIP_Cuts_Disjunctive-LiftProj:LiftProj 2
37
Node Left Objective IInf Best_Integer Best_Bound ItCnt Gap
0 0 0.0000 5 0.0000 63
0 0 0.0000 6 Disjcuts:4 71
0 0 0.0000 5 Disjcuts:4 78
0 2 0.0000 6 0.0000 78 0 0
CPXPARAM_MIP_Cuts_Disjunctive-LiftProj:Disjunctive 0
CPXPARAM_MIP_Cuts_Disjunctive-LiftProj:LiftProj 4
38
Node Left Objective IInf Best_Integer Best_Bound ItCnt Gap
0 0 0.0000 3 0.0000 39
0 2 0.0000 2 0.0000 56 0 0
CPXPARAM_MIP_Cuts_Disjunctive-LiftProj:Disjunctive 0
CPXPARAM_MIP_Cuts_Disjunctive-LiftProj:LiftProj 0
39
Node Left Objective IInf Best_Integer Best_Bound ItCnt Gap
0 0 0 0.0000 0.0000 28 0.00% 0
CPXPARAM_MIP_Cuts_Disjunctive-LiftProj:Disjunctive 0
CPXPARAM_MIP_Cuts_Disjunctive-LiftProj:LiftProj 0
